NAME          COPTPROB
OBJSENSE
  MIN
ROWS
 N  __OBJ___
 L  C5      
 L  C6      
 L  C7      
 L  C9      
 L  C12     
 L  C13     
 L  C14     
 L  C15     
 L  C17     
 L  C21     
 L  C24     
 L  C25     
 L  C27     
 L  C28     
 L  C32     
 L  C34     
 L  C35     
 L  C38     
 L  C40     
 L  C41     
 L  C44     
 L  C45     
 L  C46     
 L  C48     
 L  C49     
 L  C50     
 L  C51     
 L  C53     
 L  C55     
 L  C56     
 L  C57     
 L  C58     
 L  C60     
 L  C61     
 L  C69     
 L  C72     
 L  C75     
 L  C77     
 L  C80     
 L  C84     
 L  C87     
 L  C88     
 L  C89     
 L  C90     
 L  C91     
 L  C94     
 L  C96     
 L  C100    
 L  C102    
 L  C103    
 L  C104    
 L  C105    
 L  C106    
 L  C110    
 L  C111    
 L  C115    
 L  C119    
 L  C120    
 L  C121    
 L  C122    
 L  C124    
 L  C125    
 L  C127    
 L  C128    
 L  C129    
 L  C138    
 L  C140    
 L  C145    
 L  C147    
 L  C149    
 L  C154    
 L  C157    
 L  C163    
 L  C164    
 L  C165    
 L  C169    
 L  C170    
 L  C181    
 L  C182    
 L  C184    
 L  C189    
 L  C190    
 L  C191    
 L  C193    
 L  C195    
 L  C199    
 L  C201    
 L  C202    
 L  C203    
 L  C205    
 L  C206    
 L  C208    
 L  C211    
 L  C213    
 L  C215    
 L  C216    
 L  C217    
 L  C218    
 L  C219    
 L  C222    
 L  C224    
 L  C225    
 L  C228    
 L  C229    
 L  C230    
 L  C232    
 L  C233    
 L  C234    
 L  C237    
 L  C240    
 L  C241    
 L  C242    
 L  C243    
 L  C244    
 L  C245    
 L  C247    
 L  C249    
 L  C250    
 L  C254    
 L  C255    
 L  C257    
 L  C262    
 L  C264    
 L  C266    
 L  C267    
 L  C268    
 L  C275    
 L  C276    
 L  C277    
 L  C283    
 L  C284    
 L  C285    
 L  C288    
 L  C289    
 L  C290    
 L  C291    
 L  C293    
 L  C296    
 L  C299    
 L  C300    
 L  C301    
 L  C302    
 L  C306    
 L  C307    
 L  C308    
 L  C310    
 L  C311    
 L  C313    
 L  C314    
 L  C316    
 L  C320    
 L  C321    
 L  C322    
 L  C323    
 L  C324    
 L  C326    
 L  C328    
 L  C330    
 L  C332    
 L  C333    
 L  C335    
 L  C336    
 L  C340    
 L  C342    
 L  C344    
 L  C346    
 L  C347    
 L  C348    
 L  C351    
 L  C352    
 L  C356    
 L  C358    
 L  C359    
 L  C361    
 L  C363    
 L  C366    
 L  C367    
 L  C368    
 L  C369    
 L  C370    
 L  C376    
 L  C378    
 L  C379    
 L  C380    
 L  C382    
 L  C383    
 L  C387    
 L  C388    
 L  C389    
 L  C392    
 L  C398    
 L  C399    
COLUMNS
    MARKER    'MARKER'                 'INTORG'
    x1        __OBJ___  787
    x1        C35       -1
    x1        C211      -1
    x1        C366      -1
    x8        __OBJ___  826
    x8        C184      -1
    x8        C332      -1
    x9        __OBJ___  365
    x9        C267      -1
    x9        C376      -1
    x11       __OBJ___  985
    x11       C12       -1
    x11       C53       -1
    x11       C96       -1
    x11       C201      -1
    x15       __OBJ___  576
    x15       C125      -1
    x15       C191      -1
    x15       C296      -1
    x15       C308      -1
    x16       __OBJ___  585
    x16       C38       -1
    x16       C45       -1
    x16       C128      -1
    x16       C205      -1
    x16       C291      -1
    x17       __OBJ___  780
    x17       C122      -1
    x17       C218      -1
    x17       C283      -1
    x17       C285      -1
    x17       C311      -1
    x17       C368      -1
    x19       __OBJ___  202
    x19       C21       -1
    x19       C222      -1
    x19       C388      -1
    x20       __OBJ___  436
    x20       C84       -1
    x20       C228      -1
    x20       C299      -1
    x20       C330      -1
    x20       C340      -1
    x21       __OBJ___  842
    x21       C225      -1
    x21       C323      -1
    x22       __OBJ___  704
    x22       C115      -1
    x22       C119      -1
    x22       C284      -1
    x22       C363      -1
    x23       __OBJ___  340
    x23       C106      -1
    x23       C379      -1
    x24       __OBJ___  64
    x24       C80       -1
    x24       C241      -1
    x24       C243      -1
    x26       __OBJ___  975
    x26       C14       -1
    x26       C28       -1
    x26       C244      -1
    x26       C275      -1
    x28       __OBJ___  280
    x28       C44       -1
    x28       C49       -1
    x28       C190      -1
    x28       C224      -1
    x29       __OBJ___  752
    x29       C105      -1
    x29       C250      -1
    x29       C266      -1
    x29       C351      -1
    x33       __OBJ___  406
    x33       C149      -1
    x33       C288      -1
    x33       C290      -1
    x40       __OBJ___  877
    x40       C5        -1
    x40       C206      -1
    x40       C307      -1
    x41       __OBJ___  875
    x41       C90       -1
    x41       C102      -1
    x41       C111      -1
    x44       __OBJ___  18
    x44       C120      -1
    x44       C356      -1
    x45       __OBJ___  816
    x45       C57       -1
    x45       C276      -1
    x45       C324      -1
    x45       C399      -1
    x49       __OBJ___  425
    x49       C41       -1
    x49       C170      -1
    x49       C268      -1
    x49       C387      -1
    x50       __OBJ___  199
    x50       C88       -1
    x50       C199      -1
    x50       C264      -1
    x50       C378      -1
    x56       __OBJ___  741
    x56       C77       -1
    x56       C289      -1
    x56       C316      -1
    x57       __OBJ___  270
    x57       C32       -1
    x57       C91       -1
    x57       C257      -1
    x58       __OBJ___  210
    x58       C127      -1
    x58       C195      -1
    x58       C215      -1
    x60       __OBJ___  863
    x60       C46       -1
    x60       C322      -1
    x60       C336      -1
    x63       __OBJ___  67
    x63       C9        -1
    x63       C169      -1
    x63       C249      -1
    x63       C301      -1
    x63       C321      -1
    x64       __OBJ___  787
    x64       C333      -1
    x64       C398      -1
    x67       __OBJ___  130
    x67       C103      -1
    x67       C216      -1
    x67       C313      -1
    x72       __OBJ___  781
    x72       C100      -1
    x72       C293      -1
    x72       C361      -1
    x73       __OBJ___  372
    x73       C165      -1
    x73       C262      -1
    x73       C326      -1
    x74       __OBJ___  225
    x74       C245      -1
    x74       C369      -1
    x75       __OBJ___  580
    x75       C55       -1
    x75       C335      -1
    x75       C344      -1
    x80       __OBJ___  824
    x80       C40       -1
    x80       C87       -1
    x80       C193      -1
    x80       C213      -1
    x82       __OBJ___  47
    x82       C124      -1
    x82       C352      -1
    x82       C380      -1
    x82       C392      -1
    x84       __OBJ___  870
    x84       C164      -1
    x84       C242      -1
    x84       C382      -1
    x86       __OBJ___  686
    x86       C24       -1
    x86       C34       -1
    x86       C237      -1
    x86       C348      -1
    x91       __OBJ___  965
    x91       C50       -1
    x91       C72       -1
    x91       C154      -1
    x93       __OBJ___  815
    x93       C233      -1
    x93       C254      -1
    x93       C346      -1
    x93       C347      -1
    x94       __OBJ___  441
    x94       C13       -1
    x94       C51       -1
    x94       C277      -1
    x97       __OBJ___  742
    x97       C6        -1
    x97       C15       -1
    x97       C138      -1
    x97       C203      -1
    x97       C247      -1
    x97       C367      -1
    x99       __OBJ___  467
    x99       C60       -1
    x99       C61       -1
    x99       C121      -1
    x99       C240      -1
    x104      __OBJ___  70
    x104      C77       -1
    x104      C232      -1
    x104      C328      -1
    x104      C335      -1
    x107      __OBJ___  693
    x107      C58       -1
    x107      C322      -1
    x108      __OBJ___  394
    x108      C100      -1
    x108      C145      -1
    x109      __OBJ___  387
    x109      C181      -1
    x109      C230      -1
    x109      C264      -1
    x110      __OBJ___  227
    x110      C45       -1
    x110      C205      -1
    x110      C323      -1
    x110      C336      -1
    x111      __OBJ___  728
    x111      C25       -1
    x111      C247      -1
    x111      C250      -1
    x111      C336      -1
    x113      __OBJ___  97
    x113      C189      -1
    x113      C320      -1
    x113      C388      -1
    x116      __OBJ___  15
    x116      C6        -1
    x116      C32       -1
    x116      C310      -1
    x116      C367      -1
    x121      __OBJ___  403
    x121      C17       -1
    x121      C249      -1
    x121      C308      -1
    x121      C326      -1
    x123      __OBJ___  11
    x123      C100      -1
    x123      C147      -1
    x123      C313      -1
    x125      __OBJ___  24
    x125      C307      -1
    x127      __OBJ___  949
    x127      C44       -1
    x127      C184      -1
    x127      C224      -1
    x127      C230      -1
    x128      __OBJ___  60
    x128      C163      -1
    x128      C219      -1
    x128      C356      -1
    x129      __OBJ___  889
    x129      C128      -1
    x129      C140      -1
    x129      C229      -1
    x129      C313      -1
    x129      C359      -1
    x135      __OBJ___  666
    x135      C15       -1
    x135      C24       -1
    x139      __OBJ___  4
    x139      C27       -1
    x139      C202      -1
    x139      C310      -1
    x140      __OBJ___  959
    x140      C69       -1
    x140      C348      -1
    x140      C398      -1
    x141      __OBJ___  984
    x141      C72       -1
    x141      C244      -1
    x141      C250      -1
    x142      __OBJ___  160
    x142      C28       -1
    x142      C75       -1
    x142      C332      -1
    x142      C370      -1
    x148      __OBJ___  36
    x148      C69       -1
    x148      C110      -1
    x148      C191      -1
    x149      __OBJ___  41
    x149      C330      -1
    x150      __OBJ___  327
    x150      C44       -1
    x150      C58       -1
    x150      C190      -1
    x150      C216      -1
    x151      __OBJ___  259
    x151      C48       -1
    x151      C119      -1
    x151      C366      -1
    x151      C383      -1
    x153      __OBJ___  586
    x153      C100      -1
    x153      C122      -1
    x153      C138      -1
    x153      C389      -1
    x154      __OBJ___  154
    x154      C27       -1
    x154      C277      -1
    x155      __OBJ___  170
    x155      C140      -1
    x155      C205      -1
    x156      __OBJ___  731
    x156      C12       -1
    x156      C69       -1
    x156      C245      -1
    x158      __OBJ___  55
    x158      C219      -1
    x159      __OBJ___  366
    x159      C60       -1
    x159      C138      -1
    x159      C306      -1
    x160      __OBJ___  578
    x160      C15       -1
    x160      C56       -1
    x160      C106      -1
    x164      __OBJ___  232
    x164      C17       -1
    x164      C28       -1
    x164      C230      -1
    x166      __OBJ___  406
    x166      C61       -1
    x166      C157      -1
    x166      C230      -1
    x166      C307      -1
    x167      __OBJ___  958
    x167      C34       -1
    x167      C53       -1
    x167      C324      -1
    x170      __OBJ___  576
    x170      C120      -1
    x170      C154      -1
    x170      C262      -1
    x170      C342      -1
    x172      __OBJ___  22
    x172      C13       -1
    x172      C41       -1
    x172      C215      -1
    x175      __OBJ___  53
    x175      C84       -1
    x175      C94       -1
    x175      C347      -1
    x176      __OBJ___  446
    x176      C111      -1
    x176      C308      -1
    x178      __OBJ___  166
    x178      C14       -1
    x178      C88       -1
    x178      C376      -1
    x179      __OBJ___  220
    x179      C21       -1
    x179      C147      -1
    x179      C366      -1
    x179      C382      -1
    x180      __OBJ___  329
    x180      C170      -1
    x180      C241      -1
    x181      __OBJ___  131
    x181      C56       -1
    x181      C229      -1
    x182      __OBJ___  293
    x182      C222      -1
    x182      C275      -1
    x182      C383      -1
    x184      __OBJ___  745
    x184      C51       -1
    x184      C122      -1
    x184      C301      -1
    x186      __OBJ___  359
    x186      C50       -1
    x186      C285      -1
    x189      __OBJ___  370
    x189      C58       -1
    x189      C77       -1
    x189      C313      -1
    x190      __OBJ___  562
    x190      C57       -1
    x190      C202      -1
    x190      C211      -1
    x190      C321      -1
    x190      C322      -1
    x191      __OBJ___  180
    x191      C208      -1
    x191      C289      -1
    x191      C332      -1
    x194      __OBJ___  268
    x194      C211      -1
    x194      C389      -1
    x196      __OBJ___  763
    x196      C34       -1
    x196      C89       -1
    x196      C234      -1
    x196      C387      -1
    x198      __OBJ___  230
    x198      C376      -1
    x198      C399      -1
    x200      __OBJ___  125
    x200      C276      -1
    x200      C288      -1
    x202      __OBJ___  150
    x202      C15       -1
    x202      C121      -1
    x202      C262      -1
    x203      __OBJ___  121
    x203      C44       -1
    x203      C222      -1
    x203      C332      -1
    x203      C335      -1
    x204      __OBJ___  448
    x204      C13       -1
    x204      C240      -1
    x205      __OBJ___  702
    x205      C154      -1
    x205      C266      -1
    x206      __OBJ___  402
    x206      C149      -1
    x210      __OBJ___  223
    x210      C254      -1
    x210      C267      -1
    x210      C320      -1
    x212      __OBJ___  518
    x212      C6        -1
    x212      C125      -1
    x212      C232      -1
    x212      C379      -1
    x214      __OBJ___  471
    x214      C9        -1
    x214      C170      -1
    x214      C324      -1
    x214      C326      -1
    x217      __OBJ___  206
    x217      C14       -1
    x217      C75       -1
    x217      C157      -1
    x217      C234      -1
    x219      __OBJ___  359
    x219      C56       -1
    x219      C379      -1
    x223      __OBJ___  193
    x223      C206      -1
    x223      C241      -1
    x223      C268      -1
    x223      C332      -1
    x225      __OBJ___  43
    x225      C17       -1
    x225      C250      -1
    x228      __OBJ___  515
    x228      C84       -1
    x228      C182      -1
    x228      C205      -1
    x228      C291      -1
    x234      __OBJ___  568
    x234      C84       -1
    x234      C138      -1
    x234      C213      -1
    x234      C230      -1
    x234      C244      -1
    x235      __OBJ___  848
    x235      C49       -1
    x235      C122      -1
    x235      C149      -1
    x236      __OBJ___  820
    x236      C291      -1
    x236      C340      -1
    x236      C367      -1
    x238      __OBJ___  133
    x238      C7        -1
    x238      C217      -1
    x238      C299      -1
    x242      __OBJ___  388
    x242      C348      -1
    x244      __OBJ___  767
    x244      C44       -1
    x244      C87       -1
    x244      C277      -1
    x246      __OBJ___  283
    x246      C104      -1
    x246      C213      -1
    x246      C368      -1
    x246      C380      -1
    x246      C383      -1
    x247      __OBJ___  501
    x247      C96       -1
    x247      C129      -1
    x247      C169      -1
    x247      C202      -1
    x247      C203      -1
    x247      C316      -1
    x248      __OBJ___  851
    x248      C6        -1
    x248      C25       -1
    x248      C53       -1
    x248      C115      -1
    x248      C322      -1
    x249      __OBJ___  645
    x249      C88       -1
    x249      C119      -1
    x249      C224      -1
    x249      C254      -1
    x251      __OBJ___  11
    x251      C75       -1
    x251      C359      -1
    x253      __OBJ___  793
    x253      C184      -1
    x253      C316      -1
    x253      C361      -1
    x255      __OBJ___  38
    x255      C320      -1
    x257      __OBJ___  343
    x257      C17       -1
    x257      C306      -1
    x258      __OBJ___  691
    x258      C38       -1
    x258      C111      -1
    x259      __OBJ___  314
    x259      C189      -1
    x259      C218      -1
    x259      C314      -1
    x260      __OBJ___  46
    x260      C356      -1
    x260      C378      -1
    x262      __OBJ___  2
    x262      C193      -1
    x264      __OBJ___  804
    x264      C283      -1
    x264      C285      -1
    x264      C398      -1
    x265      __OBJ___  184
    x265      C181      -1
    x265      C288      -1
    x266      __OBJ___  850
    x266      C24       -1
    x266      C103      -1
    x266      C105      -1
    x266      C191      -1
    x266      C276      -1
    x266      C284      -1
    x267      __OBJ___  233
    x267      C40       -1
    x267      C242      -1
    x268      __OBJ___  409
    x268      C216      -1
    x268      C346      -1
    x268      C370      -1
    x269      __OBJ___  215
    x269      C17       -1
    x269      C75       -1
    x269      C242      -1
    x273      __OBJ___  46
    x273      C332      -1
    x274      __OBJ___  985
    x274      C55       -1
    x274      C119      -1
    x274      C213      -1
    x274      C306      -1
    x276      __OBJ___  699
    x276      C149      -1
    x276      C346      -1
    x277      __OBJ___  474
    x277      C25       -1
    x277      C129      -1
    x278      __OBJ___  43
    x278      C7        -1
    x278      C201      -1
    x280      __OBJ___  242
    x280      C129      -1
    x284      __OBJ___  87
    x284      C165      -1
    x284      C218      -1
    x284      C328      -1
    x284      C342      -1
    x286      __OBJ___  900
    x286      C27       -1
    x286      C94       -1
    x286      C199      -1
    x286      C398      -1
    x288      __OBJ___  33
    x288      C49       -1
    x289      __OBJ___  579
    x289      C154      -1
    x289      C250      -1
    x289      C289      -1
    x290      __OBJ___  200
    x290      C310      -1
    x290      C311      -1
    x291      __OBJ___  762
    x291      C61       -1
    x291      C75       -1
    x291      C208      -1
    x291      C225      -1
    x294      __OBJ___  512
    x294      C90       -1
    x294      C104      -1
    x294      C330      -1
    x299      __OBJ___  104
    x299      C255      -1
    x299      C308      -1
    x302      __OBJ___  74
    x302      C89       -1
    x302      C245      -1
    x302      C344      -1
    x302      C359      -1
    x304      __OBJ___  551
    x304      C127      -1
    x304      C293      -1
    x304      C308      -1
    x304      C348      -1
    x323      __OBJ___  203
    x323      C125      -1
    x323      C163      -1
    x323      C217      -1
    x323      C352      -1
    x325      __OBJ___  102
    x325      C46       -1
    x325      C94       -1
    x325      C367      -1
    x326      __OBJ___  421
    x326      C105      -1
    x326      C216      -1
    x327      __OBJ___  921
    x327      C72       -1
    x327      C80       -1
    x330      __OBJ___  460
    x330      C102      -1
    x330      C311      -1
    x332      __OBJ___  239
    x332      C48       -1
    x332      C56       -1
    x332      C124      -1
    x333      __OBJ___  237
    x333      C110      -1
    x333      C275      -1
    x337      __OBJ___  573
    x337      C128      -1
    x337      C163      -1
    x337      C193      -1
    x337      C201      -1
    x337      C307      -1
    x338      __OBJ___  730
    x338      C255      -1
    x338      C300      -1
    x338      C316      -1
    x338      C370      -1
    x343      __OBJ___  507
    x343      C45       -1
    x343      C145      -1
    x344      __OBJ___  65
    x344      C228      -1
    x344      C237      -1
    x344      C302      -1
    x345      __OBJ___  926
    x345      C5        -1
    x345      C322      -1
    x345      C392      -1
    x346      __OBJ___  885
    x346      C35       -1
    x346      C140      -1
    x346      C181      -1
    x346      C358      -1
    x347      __OBJ___  146
    x347      C169      -1
    x347      C182      -1
    x347      C215      -1
    x350      __OBJ___  173
    x350      C96       -1
    x350      C370      -1
    x354      __OBJ___  415
    x354      C61       -1
    x354      C243      -1
    x357      __OBJ___  405
    x357      C80       -1
    x357      C91       -1
    x357      C213      -1
    x357      C216      -1
    x357      C233      -1
    x358      __OBJ___  604
    x358      C48       -1
    x358      C255      -1
    x358      C323      -1
    x358      C344      -1
    x358      C369      -1
    x359      __OBJ___  48
    x359      C300      -1
    x361      __OBJ___  249
    x361      C237      -1
    x361      C310      -1
    x361      C333      -1
    x361      C380      -1
    x369      __OBJ___  480
    x369      C75       -1
    x369      C106      -1
    x369      C216      -1
    x369      C361      -1
    x370      __OBJ___  714
    x370      C5        -1
    x370      C7        -1
    x370      C262      -1
    x376      __OBJ___  89
    x376      C217      -1
    x377      __OBJ___  315
    x377      C195      -1
    x377      C199      -1
    x377      C302      -1
    x378      __OBJ___  127
    x378      C103      -1
    x378      C190      -1
    x378      C290      -1
    x378      C300      -1
    x379      __OBJ___  556
    x379      C201      -1
    x379      C229      -1
    x379      C285      -1
    x379      C336      -1
    x381      __OBJ___  302
    x381      C283      -1
    x381      C314      -1
    x384      __OBJ___  54
    x384      C203      -1
    x384      C208      -1
    x386      __OBJ___  368
    x386      C255      -1
    x386      C363      -1
    x387      __OBJ___  284
    x387      C15       -1
    x387      C127      -1
    x387      C326      -1
    x388      __OBJ___  530
    x388      C102      -1
    x388      C368      -1
    x388      C369      -1
    x389      __OBJ___  436
    x389      C164      -1
    x389      C219      -1
    x390      __OBJ___  202
    x390      C53       -1
    x390      C157      -1
    x390      C254      -1
    x390      C332      -1
    x392      __OBJ___  163
    x392      C41       -1
    x392      C290      -1
    x392      C358      -1
    x393      __OBJ___  224
    x393      C49       -1
    x393      C53       -1
    x393      C351      -1
    x395      __OBJ___  723
    x395      C225      -1
    x395      C233      -1
    x395      C296      -1
    x398      __OBJ___  927
    x398      C184      -1
    x398      C257      -1
    MARKER    'MARKER'                 'INTEND'
RHS
    RHS       __OBJ___  -19338
    RHS       C5        -1
    RHS       C6        -1
    RHS       C7        -1
    RHS       C9        -1
    RHS       C12       -1
    RHS       C13       -1
    RHS       C14       -1
    RHS       C15       -1
    RHS       C17       -1
    RHS       C21       -1
    RHS       C24       -1
    RHS       C25       -1
    RHS       C27       -1
    RHS       C28       -1
    RHS       C32       -1
    RHS       C34       -1
    RHS       C35       -1
    RHS       C38       -1
    RHS       C40       -1
    RHS       C41       -1
    RHS       C44       -1
    RHS       C45       -1
    RHS       C46       -1
    RHS       C48       -1
    RHS       C49       -1
    RHS       C50       -1
    RHS       C51       -1
    RHS       C53       -1
    RHS       C55       -1
    RHS       C56       -1
    RHS       C57       -1
    RHS       C58       -1
    RHS       C60       -1
    RHS       C61       -1
    RHS       C69       -1
    RHS       C72       -1
    RHS       C75       -1
    RHS       C77       -1
    RHS       C80       -1
    RHS       C84       -1
    RHS       C87       -1
    RHS       C88       -1
    RHS       C89       -1
    RHS       C90       -1
    RHS       C91       -1
    RHS       C94       -1
    RHS       C96       -1
    RHS       C100      -1
    RHS       C102      -1
    RHS       C103      -1
    RHS       C104      -1
    RHS       C105      -1
    RHS       C106      -1
    RHS       C110      -1
    RHS       C111      -1
    RHS       C115      -1
    RHS       C119      -1
    RHS       C120      -1
    RHS       C121      -1
    RHS       C122      -1
    RHS       C124      -1
    RHS       C125      -1
    RHS       C127      -1
    RHS       C128      -1
    RHS       C129      -1
    RHS       C138      -1
    RHS       C140      -1
    RHS       C145      -1
    RHS       C147      -1
    RHS       C149      -1
    RHS       C154      -1
    RHS       C157      -1
    RHS       C163      -1
    RHS       C164      -1
    RHS       C165      -1
    RHS       C169      -1
    RHS       C170      -1
    RHS       C181      -1
    RHS       C182      -1
    RHS       C184      -1
    RHS       C189      -1
    RHS       C190      -1
    RHS       C191      -1
    RHS       C193      -1
    RHS       C195      -1
    RHS       C199      -1
    RHS       C201      -1
    RHS       C202      -1
    RHS       C203      -1
    RHS       C205      -1
    RHS       C206      -1
    RHS       C208      -1
    RHS       C211      -1
    RHS       C213      -1
    RHS       C215      -1
    RHS       C216      -1
    RHS       C217      -1
    RHS       C218      -1
    RHS       C219      -1
    RHS       C222      -1
    RHS       C224      -1
    RHS       C225      -1
    RHS       C228      -1
    RHS       C229      -1
    RHS       C230      -1
    RHS       C232      -1
    RHS       C233      -1
    RHS       C234      -1
    RHS       C237      -1
    RHS       C240      -1
    RHS       C241      -1
    RHS       C242      -1
    RHS       C243      -1
    RHS       C244      -1
    RHS       C245      -1
    RHS       C247      -1
    RHS       C249      -1
    RHS       C250      -1
    RHS       C254      -1
    RHS       C255      -1
    RHS       C257      -1
    RHS       C262      -1
    RHS       C264      -1
    RHS       C266      -1
    RHS       C267      -1
    RHS       C268      -1
    RHS       C275      -1
    RHS       C276      -1
    RHS       C277      -1
    RHS       C283      -1
    RHS       C284      -1
    RHS       C285      -1
    RHS       C288      -1
    RHS       C289      -1
    RHS       C290      -1
    RHS       C291      -1
    RHS       C293      -1
    RHS       C296      -1
    RHS       C299      -1
    RHS       C300      -1
    RHS       C301      -1
    RHS       C302      -1
    RHS       C306      -1
    RHS       C307      -1
    RHS       C308      -1
    RHS       C310      -1
    RHS       C311      -1
    RHS       C313      -1
    RHS       C314      -1
    RHS       C316      -1
    RHS       C320      -1
    RHS       C321      -1
    RHS       C322      -1
    RHS       C323      -1
    RHS       C324      -1
    RHS       C326      -1
    RHS       C328      -1
    RHS       C330      -1
    RHS       C332      -1
    RHS       C333      -1
    RHS       C335      -1
    RHS       C336      -1
    RHS       C340      -1
    RHS       C342      -1
    RHS       C344      -1
    RHS       C346      -1
    RHS       C347      -1
    RHS       C348      -1
    RHS       C351      -1
    RHS       C352      -1
    RHS       C356      -1
    RHS       C358      -1
    RHS       C359      -1
    RHS       C361      -1
    RHS       C363      -1
    RHS       C366      -1
    RHS       C367      -1
    RHS       C368      -1
    RHS       C369      -1
    RHS       C370      -1
    RHS       C376      -1
    RHS       C378      -1
    RHS       C379      -1
    RHS       C380      -1
    RHS       C382      -1
    RHS       C383      -1
    RHS       C387      -1
    RHS       C388      -1
    RHS       C389      -1
    RHS       C392      -1
    RHS       C398      -1
    RHS       C399      -1
BOUNDS
 UP BOUND     x1        1
 UP BOUND     x8        1
 UP BOUND     x9        1
 UP BOUND     x11       1
 UP BOUND     x15       1
 UP BOUND     x16       1
 UP BOUND     x17       1
 UP BOUND     x19       1
 UP BOUND     x20       1
 UP BOUND     x21       1
 UP BOUND     x22       1
 UP BOUND     x23       1
 UP BOUND     x24       1
 UP BOUND     x26       1
 UP BOUND     x28       1
 UP BOUND     x29       1
 UP BOUND     x33       1
 UP BOUND     x40       1
 UP BOUND     x41       1
 UP BOUND     x44       1
 UP BOUND     x45       1
 UP BOUND     x49       1
 UP BOUND     x50       1
 UP BOUND     x56       1
 UP BOUND     x57       1
 UP BOUND     x58       1
 UP BOUND     x60       1
 UP BOUND     x63       1
 UP BOUND     x64       1
 UP BOUND     x67       1
 UP BOUND     x72       1
 UP BOUND     x73       1
 UP BOUND     x74       1
 UP BOUND     x75       1
 UP BOUND     x80       1
 UP BOUND     x82       1
 UP BOUND     x84       1
 UP BOUND     x86       1
 UP BOUND     x91       1
 UP BOUND     x93       1
 UP BOUND     x94       1
 UP BOUND     x97       1
 UP BOUND     x99       1
 UP BOUND     x104      1
 UP BOUND     x107      1
 UP BOUND     x108      1
 UP BOUND     x109      1
 UP BOUND     x110      1
 UP BOUND     x111      1
 UP BOUND     x113      1
 UP BOUND     x116      1
 UP BOUND     x121      1
 UP BOUND     x123      1
 UP BOUND     x125      1
 UP BOUND     x127      1
 UP BOUND     x128      1
 UP BOUND     x129      1
 UP BOUND     x135      1
 UP BOUND     x139      1
 UP BOUND     x140      1
 UP BOUND     x141      1
 UP BOUND     x142      1
 UP BOUND     x148      1
 UP BOUND     x149      1
 UP BOUND     x150      1
 UP BOUND     x151      1
 UP BOUND     x153      1
 UP BOUND     x154      1
 UP BOUND     x155      1
 UP BOUND     x156      1
 UP BOUND     x158      1
 UP BOUND     x159      1
 UP BOUND     x160      1
 UP BOUND     x164      1
 UP BOUND     x166      1
 UP BOUND     x167      1
 UP BOUND     x170      1
 UP BOUND     x172      1
 UP BOUND     x175      1
 UP BOUND     x176      1
 UP BOUND     x178      1
 UP BOUND     x179      1
 UP BOUND     x180      1
 UP BOUND     x181      1
 UP BOUND     x182      1
 UP BOUND     x184      1
 UP BOUND     x186      1
 UP BOUND     x189      1
 UP BOUND     x190      1
 UP BOUND     x191      1
 UP BOUND     x194      1
 UP BOUND     x196      1
 UP BOUND     x198      1
 UP BOUND     x200      1
 UP BOUND     x202      1
 UP BOUND     x203      1
 UP BOUND     x204      1
 UP BOUND     x205      1
 UP BOUND     x206      1
 UP BOUND     x210      1
 UP BOUND     x212      1
 UP BOUND     x214      1
 UP BOUND     x217      1
 UP BOUND     x219      1
 UP BOUND     x223      1
 UP BOUND     x225      1
 UP BOUND     x228      1
 UP BOUND     x234      1
 UP BOUND     x235      1
 UP BOUND     x236      1
 UP BOUND     x238      1
 UP BOUND     x242      1
 UP BOUND     x244      1
 UP BOUND     x246      1
 UP BOUND     x247      1
 UP BOUND     x248      1
 UP BOUND     x249      1
 UP BOUND     x251      1
 UP BOUND     x253      1
 UP BOUND     x255      1
 UP BOUND     x257      1
 UP BOUND     x258      1
 UP BOUND     x259      1
 UP BOUND     x260      1
 UP BOUND     x262      1
 UP BOUND     x264      1
 UP BOUND     x265      1
 UP BOUND     x266      1
 UP BOUND     x267      1
 UP BOUND     x268      1
 UP BOUND     x269      1
 UP BOUND     x273      1
 UP BOUND     x274      1
 UP BOUND     x276      1
 UP BOUND     x277      1
 UP BOUND     x278      1
 UP BOUND     x280      1
 UP BOUND     x284      1
 UP BOUND     x286      1
 UP BOUND     x288      1
 UP BOUND     x289      1
 UP BOUND     x290      1
 UP BOUND     x291      1
 UP BOUND     x294      1
 UP BOUND     x299      1
 UP BOUND     x302      1
 UP BOUND     x304      1
 UP BOUND     x323      1
 UP BOUND     x325      1
 UP BOUND     x326      1
 UP BOUND     x327      1
 UP BOUND     x330      1
 UP BOUND     x332      1
 UP BOUND     x333      1
 UP BOUND     x337      1
 UP BOUND     x338      1
 UP BOUND     x343      1
 UP BOUND     x344      1
 UP BOUND     x345      1
 UP BOUND     x346      1
 UP BOUND     x347      1
 UP BOUND     x350      1
 UP BOUND     x354      1
 UP BOUND     x357      1
 UP BOUND     x358      1
 UP BOUND     x359      1
 UP BOUND     x361      1
 UP BOUND     x369      1
 UP BOUND     x370      1
 UP BOUND     x376      1
 UP BOUND     x377      1
 UP BOUND     x378      1
 UP BOUND     x379      1
 UP BOUND     x381      1
 UP BOUND     x384      1
 UP BOUND     x386      1
 UP BOUND     x387      1
 UP BOUND     x388      1
 UP BOUND     x389      1
 UP BOUND     x390      1
 UP BOUND     x392      1
 UP BOUND     x393      1
 UP BOUND     x395      1
 UP BOUND     x398      1
ENDATA
